\ENCODING=ISO-8859-1
\Problem name: IloCplex

Minimize
 obj: 209 x1 + 162 x2 + 120 x3 + 166 x4 + 140 x5 + 108 x6 + 82 x7 + 168 x8
      + 142 x9 + 70 x10 + 99 x11 + 132 x12 + 104 x13 + 97 x14 + 104 x15
      + 197 x16 + 141 x17 + 129 x18 + 134 x19 + 104 x20 + 139 x21 + 81 x22
      + 110 x23 + 82 x24 + 132 x25 + 127 x26 + 105 x27 + 74 x28 + 128 x29
      + 183 x30 + 128 x31 + 182 x32 + 126 x33 + 63 x34 + 184 x35 + 181 x36
      + 99 x37 + 171 x38 + 108 x39 + 107 x40 + 173 x41 + 95 x42 + 109 x43
      + 128 x44 + 115 x45 + 88 x46 + 127 x47 + 54 x48 + 89 x49 + 114 x50
      + 57 x51 + 103 x52 + 89 x53 + 49 x54 + 106 x55 + 35 x56 + 97 x57
      + 172 x58 + 97 x59 + 243 x60 + 136 x61 + 109 x62 + 100 x63 + 233 x64
      + 215 x65 + 121 x66 + 92 x67 + 215 x68 + 90 x69 + 86 x70 + 92 x71
      + 86 x72 + 717 x73 + 172 x74 + 130 x75 + 127 x76 + 98 x77 + 717 x78
      + 89 x79 + 98 x80 + 125 x81 + 38 x82 + 106 x83 + 128 x84 + 694 x85
      + 115 x86 + 119 x87 + 102 x88 + 86 x89 + 697 x90 + 692 x91 + 105 x92
      + 33 x93 + 692 x94 + 30 x95 + 89 x96 + 126 x97 + 103 x98 + 691 x99
      + 119 x100 + 759 x101 + 183 x102 + 147 x103 + 106 x104 + 769 x105
      + 122 x106 + 761 x107 + 106 x108 + 756 x109 + 106 x110 + 112 x111
      + 756 x112 + 751 x113 + 751 x114 + 555 x115 + 185 x116 + 149 x117
      + 565 x118 + 124 x119 + 553 x120 + 106 x121 + 552 x122 + 102 x123
      + 556 x124 + 108 x125 + 98 x126 + 109 x127 + 476 x128 + 162 x129
      + 114 x130 + 105 x131 + 463 x132 + 463 x133 + 97 x134 + 462 x135
      + 96 x136 + 431 x137 + 63 x138 + 434 x139 + 100 x140 + 75 x141 + 83 x142
      + 435 x143 + 93 x144 + 105 x145 + 89 x146 + 89 x147 + 89 x148 + 420 x149
      + 118 x150 + 221 x151 + 161 x152 + 161 x153 + 124 x154 + 116 x155
      + 124 x156 + 120 x157 + 34 x158 + 176 x159 + 171 x160 + 163 x161
      + 166 x162 + 129 x163 + 121 x164 + 122 x165 + 166 x166 + 98 x167
      + 119 x168 + 99 x169 + 116 x170 + 124 x171 + 161 x172 + 101 x173
      + 177 x174 + 135 x175 + 547 x176 + 175 x177 + 130 x178 + 151 x179
      + 153 x180 + 100 x181 + 542 x182 + 104 x183 + 122 x184 + 107 x185
      + 125 x186 + 95 x187 + 411 x188 + 138 x189 + 409 x190 + 136 x191
      + 357 x192 + 156 x193 + 118 x194 + 135 x195 + 117 x196 + 115 x197
      + 110 x198 + 113 x199 + 249 x200 + 170 x201 + 132 x202 + 124 x203
      + 236 x204 + 237 x205 + 178 x206 + 165 x207 + 122 x208 + 274 x209
      + 178 x210 + 145 x211 + 97 x212 + 261 x213 + 256 x214 + 96 x215
      + 184 x216 + 167 x217 + 194 x218 + 125 x219 + 184 x220 + 167 x221
      + 134 x222 + 130 x223 + 253 x224 + 155 x225 + 257 x226 + 126 x227
      + 173 x228 + 160 x229 + 172 x230 + 140 x231 + 174 x232 + 180 x233
      + 127 x234 + 164 x235 + 160 x236 + 106 x237 + 320 x238 + 147 x239
      + 57 x240 + 46 x241 + 302 x242 + 58 x243 + 302 x244 + 298 x245 + 301 x246
      + 199 x247 + 120 x248 + 176 x249 + 100 x250 + 179 x251 + 172 x252
      + 84 x253 + 161 x254 + 457 x255 + 461 x256 + 135 x257 + 170 x258
      + 132 x259 + 121 x260 + 272 x261 + 138 x262 + 271 x263 + 104 x264
      + 272 x265 + 178 x266 + 146 x267 + 172 x268 + 126 x269 + 269 x270
      + 150 x271 + 270 x272 + 131 x273 + 411 x274 + 138 x275 + 418 x276
      + 126 x277 + 418 x278
Subject To
 NV:  x1 + x2 + x3 + x4 + x5 + x6 + x7 + x8 + x9 + x10 + x11 + x12 + x13 + x14
      + x15 + x16 + x17 + x18 + x19 + x20 + x21 + x22 + x23 + x24 + x25 + x26
      + x27 + x28 + x29 + x30 + x31 + x32 + x33 + x34 + x35 + x36 + x37 + x38
      + x39 + x40 + x41 + x42 + x43 + x44 + x45 + x46 + x47 + x48 + x49 + x50
      + x51 + x52 + x53 + x54 + x55 + x56 + x57 + x58 + x59 + x60 + x61 + x62
      + x63 + x64 + x65 + x66 + x67 + x68 + x69 + x70 + x71 + x72 + x73 + x74
      + x75 + x76 + x77 + x78 + x79 + x80 + x81 + x82 + x83 + x84 + x85 + x86
      + x87 + x88 + x89 + x90 + x91 + x92 + x93 + x94 + x95 + x96 + x97 + x98
      + x99 + x100 + x101 + x102 + x103 + x104 + x105 + x106 + x107 + x108
      + x109 + x110 + x111 + x112 + x113 + x114 + x115 + x116 + x117 + x118
      + x119 + x120 + x121 + x122 + x123 + x124 + x125 + x126 + x127 + x128
      + x129 + x130 + x131 + x132 + x133 + x134 + x135 + x136 + x137 + x138
      + x139 + x140 + x141 + x142 + x143 + x144 + x145 + x146 + x147 + x148
      + x149 + x150 + x151 + x152 + x153 + x154 + x155 + x156 + x157 + x158
      + x159 + x160 + x161 + x162 + x163 + x164 + x165 + x166 + x167 + x168
      + x169 + x170 + x171 + x172 + x173 + x174 + x175 + x176 + x177 + x178
      + x179 + x180 + x181 + x182 + x183 + x184 + x185 + x186 + x187 + x188
      + x189 + x190 + x191 + x192 + x193 + x194 + x195 + x196 + x197 + x198
      + x199 + x200 + x201 + x202 + x203 + x204 + x205 + x206 + x207 + x208
      + x209 + x210 + x211 + x212 + x213 + x214 + x215 + x216 + x217 + x218
      + x219 + x220 + x221 + x222 + x223 + x224 + x225 + x226 + x227 + x228
      + x229 + x230 + x231 + x232 + x233 + x234 + x235 + x236 + x237 + x238
      + x239 + x240 + x241 + x242 + x243 + x244 + x245 + x246 + x247 + x248
      + x249 + x250 + x251 + x252 + x253 + x254 + x255 + x256 + x257 + x258
      + x259 + x260 + x261 + x262 + x263 + x264 + x265 + x266 + x267 + x268
      + x269 + x270 + x271 + x272 + x273 + x274 + x275 + x276 + x277 + x278
      <= 7
 c2:  x2 + x8 + x13 + x15 + x23 + x27 + x52 + x55 + x67 + x69 + x70 + x72 + x77
      + x80 + x89 + x104 + x107 + x109 + x112 + x113 + x114 + x121 + x122
      + x124 + x142 + x181 + x183 + x185 + x197 + x237 + x264  = 1
 c3:  x5 + x18 + x21 + x24 + x28 + x34 + x48 + x51 + x55 + x67 + x69 + x70
      + x72 + x77 + x80 + x89 + x104 + x108 + x110 + x121 + x143 + x149 + x181
      + x183 + x185 + x197 + x237 + x264  = 1
 c4:  x1 + x16 + x30 + x32 + x35 + x36 + x38 + x41 + x58 + x60 + x64 + x65
      + x68 + x73 + x78 + x85 + x90 + x91 + x94 + x99 + x101 + x105 + x107
      + x109 + x112 + x113 + x114 + x115 + x118 + x120 + x122 + x124 + x128
      + x132 + x133 + x135 + x137 + x139 + x143 + x149 + x151 + x159 + x161
      + x166 + x172 + x175 + x176 + x182 + x189 + x190 + x192 + x200 + x204
      + x205 + x206 + x209 + x213 + x214 + x216 + x218 + x220 + x224 + x226
      + x228 + x231 + x232 + x235 + x236 + x238 + x242 + x244 + x245 + x246
      + x247 + x249 + x251 + x254 + x255 + x256 + x261 + x263 + x265 + x266
      + x268 + x270 + x272 + x275 + x277  = 1
 c5:  x6 + x10 + x13 + x15 + x23 + x27 + x53 + x56 + x82 + x93 + x96 + x138
      + x141 + x212 + x215  = 1
 c6:  x4 + x9 + x17 + x44 + x46 + x49 + x53 + x57 + x59 + x63 + x71 + x79 + x96
      + x131 + x134 + x136 + x212 + x215  = 1
 c7:  x3 + x14 + x22 + x25 + x26 + x28 + x34 + x48 + x51 + x54 + x57 + x59
      + x63 + x72 + x80 + x89 + x131 + x142 + x157 + x179 + x180 + x195 + x196
      + x225 + x260  = 1
 c8:  x1 + x16 + x30 + x32 + x35 + x36 + x39 + x42 + x47 + x50 + x60 + x66
      + x74 + x75 + x81 + x84 + x98 + x102 + x103 + x106 + x111 + x116 + x117
      + x119 + x123 + x125 + x126 + x129 + x130 + x140 + x145 + x146 + x151
      + x160 + x162 + x163 + x169 + x173 + x187 + x223 + x250  = 1
 c9:  x2 + x8 + x12 + x19 + x20 + x39 + x42 + x47 + x50 + x61 + x62 + x66 + x73
      + x78 + x85 + x90 + x92 + x97 + x101 + x105 + x107 + x109 + x112 + x116
      + x117 + x119 + x123 + x125 + x126 + x129 + x130 + x140 + x145 + x146
      + x152 + x153 + x154 + x156 + x160 + x162 + x163 + x168 + x171 + x175
      + x176 + x182 + x188 + x190 + x193 + x194 + x198 + x199 + x201 + x202
      + x203 + x207 + x208 + x210 + x211 + x217 + x219 + x221 + x222 + x227
      + x229 + x231 + x233 + x234 + x239 + x248 + x252 + x255 + x256 + x257
      + x258 + x259 + x262 + x267 + x269 + x271 + x273 + x274 + x277  = 1
 c10: x6 + x11 + x37 + x76 + x88 + x92 + x98 + x144 + x147 + x148 + x164 + x167
      + x169 + x173 + x187 + x223 + x249  = 1
 c11: x5 + x18 + x21 + x25 + x26 + x29 + x31 + x33 + x40 + x43 + x45 + x84
      + x97 + x125 + x126 + x150 + x155 + x157 + x165 + x170 + x179 + x180
      + x195 + x196 + x225 + x260  = 1
 c12: x7 + x11 + x37 + x76 + x88 + x92 + x98 + x144 + x147 + x148 + x164 + x167
      + x169 + x173 + x187 + x223 + x250  = 1
 c13: x2 + x8 + x12 + x19 + x20 + x39 + x43 + x45 + x83 + x86 + x87 + x100
      + x127 + x150 + x156 + x165 + x170 + x179 + x180 + x195 + x196 + x225
      + x260  = 1
 c14: x1 + x16 + x30 + x32 + x35 + x36 + x38 + x41 + x58 + x60 + x64 + x66
      + x73 + x78 + x85 + x90 + x91 + x94 + x99 + x101 + x105 + x107 + x109
      + x112 + x113 + x114 + x115 + x118 + x120 + x122 + x124 + x128 + x132
      + x133 + x135 + x138 + x141 + x151 + x159 + x161 + x166 + x172 + x174
      + x176 + x182 + x188 + x190 + x192 + x200 + x204 + x205 + x206 + x209
      + x213 + x214 + x216 + x218 + x220 + x224 + x226 + x228 + x230 + x232
      + x235 + x236 + x238 + x241 + x243 + x247 + x249 + x251 + x254 + x255
      + x256 + x261 + x263 + x265 + x266 + x269 + x270 + x273 + x274 + x276
      + x278  = 1
 c15: x7 + x11 + x37 + x76 + x88 + x92 + x98 + x145 + x146 + x164 + x167 + x169
      + x173 + x186 + x199 + x208 + x223 + x227 + x250  = 1
 c16: x1 + x16 + x30 + x32 + x35 + x36 + x38 + x41 + x58 + x61 + x63 + x71
      + x73 + x78 + x85 + x90 + x91 + x94 + x99 + x101 + x105 + x107 + x109
      + x112 + x113 + x114 + x115 + x118 + x120 + x122 + x124 + x128 + x132
      + x133 + x135 + x138 + x141 + x151 + x159 + x161 + x166 + x172 + x174
      + x176 + x182 + x188 + x190 + x192 + x200 + x204 + x205 + x206 + x209
      + x213 + x214 + x216 + x218 + x220 + x224 + x226 + x228 + x230 + x232
      + x235 + x236 + x239 + x240 + x242 + x244 + x245 + x246 + x247 + x249
      + x251 + x254 + x255 + x256 + x261 + x263 + x265 + x267 + x268 + x271
      + x272 + x274 + x276 + x278  = 1
 c17: x3 + x14 + x23 + x26 + x29 + x31 + x33 + x40 + x43 + x45 + x83 + x86
      + x87 + x100 + x127 + x150 + x155 + x157 + x165 + x170 + x179 + x180
      + x195 + x196 + x225 + x260  = 1
 c18: x3 + x14 + x22 + x24 + x29 + x31 + x32 + x35 + x36 + x38 + x41 + x58
      + x60 + x64 + x65 + x68 + x73 + x78 + x85 + x90 + x91 + x94 + x99 + x101
      + x106 + x112 + x113 + x114 + x115 + x119 + x123 + x125 + x127 + x128
      + x132 + x133 + x135 + x137 + x139 + x143 + x149 + x151 + x159 + x161
      + x167 + x169 + x172 + x174 + x176 + x182 + x188 + x190 + x192 + x200
      + x204 + x205 + x206 + x209 + x213 + x214 + x216 + x219 + x220 + x224
      + x226 + x228 + x230 + x232 + x235 + x236 + x238 + x242 + x244 + x245
      + x246 + x248 + x251 + x254 + x255 + x256 + x261 + x263 + x265 + x266
      + x268 + x270 + x272 + x274 + x276 + x278  = 1
 c19: x1 + x16 + x30 + x32 + x35 + x36 + x38 + x41 + x58 + x60 + x64 + x65
      + x68 + x73 + x78 + x86 + x87 + x100 + x101 + x105 + x107 + x109 + x112
      + x113 + x114 + x115 + x118 + x120 + x122 + x124 + x128 + x132 + x133
      + x135 + x137 + x139 + x143 + x150 + x152 + x153 + x155 + x157 + x159
      + x162 + x164 + x165 + x170 + x179 + x180 + x195 + x196 + x225 + x260
       = 1
 c20: x2 + x8 + x12 + x19 + x20 + x39 + x42 + x47 + x50 + x61 + x62 + x66 + x74
      + x75 + x81 + x84 + x97 + x102 + x103 + x106 + x111 + x115 + x118 + x120
      + x122 + x124 + x128 + x140 + x145 + x146 + x152 + x153 + x154 + x156
      + x160 + x162 + x163 + x168 + x171 + x175 + x177 + x178 + x184 + x186
      + x189 + x191 + x193 + x194 + x198 + x199 + x200 + x207 + x208 + x210
      + x211 + x217 + x219 + x221 + x222 + x224 + x226 + x228 + x230 + x233
      + x234 + x239 + x248 + x252 + x257 + x262 + x267 + x269 + x270 + x272
      + x275 + x277  = 1
 c21: x4 + x9 + x17 + x44 + x46 + x49 + x53 + x57 + x59 + x63 + x71 + x79 + x96
      + x131 + x134 + x136 + x212 + x215  = 1
 c22: x6 + x10 + x13 + x15 + x23 + x27 + x52 + x55 + x68 + x77 + x80 + x89
      + x104 + x108 + x110 + x121 + x142 + x181 + x183 + x185 + x197 + x237
      + x264  = 1
 c23: x1 + x16 + x30 + x32 + x35 + x36 + x38 + x41 + x58 + x60 + x64 + x65
      + x68 + x70 + x72 + x73 + x78 + x85 + x90 + x91 + x94 + x99 + x101 + x105
      + x107 + x110 + x115 + x118 + x121 + x128 + x132 + x133 + x135 + x137
      + x139 + x143 + x149 + x151 + x159 + x161 + x166 + x172 + x174 + x177
      + x179 + x181 + x182 + x188 + x190 + x192 + x200 + x204 + x205 + x206
      + x209 + x213 + x214 + x216 + x218 + x220 + x224 + x226 + x228 + x230
      + x232 + x235 + x236 + x238 + x242 + x244 + x245 + x246 + x247 + x249
      + x252 + x253 + x255 + x256 + x261 + x264 + x266 + x268 + x270 + x272
      + x274 + x276 + x278  = 1
 c24: x1 + x16 + x30 + x32 + x35 + x36 + x38 + x41 + x58 + x60 + x64 + x65
      + x68 + x73 + x78 + x85 + x90 + x91 + x94 + x99 + x101 + x105 + x107
      + x109 + x112 + x113 + x114 + x115 + x118 + x120 + x122 + x124 + x128
      + x132 + x133 + x135 + x137 + x139 + x143 + x149 + x151 + x159 + x161
      + x166 + x172 + x174 + x176 + x182 + x188 + x190 + x193 + x195 + x197
      + x201 + x205 + x207 + x209 + x213 + x214 + x216 + x218 + x220 + x224
      + x228 + x230 + x232 + x238 + x242 + x244 + x245 + x246 + x247 + x249
      + x251 + x254 + x255 + x258 + x261 + x263 + x265 + x266 + x268 + x270
      + x272 + x274 + x276 + x278  = 1
 c25: x5 + x18 + x21 + x25 + x26 + x29 + x31 + x33 + x41 + x58 + x60 + x64
      + x65 + x68 + x74 + x76 + x87 + x100 + x101 + x105 + x107 + x109 + x112
      + x113 + x114 + x115 + x118 + x120 + x122 + x124 + x128 + x132 + x133
      + x135 + x137 + x139 + x143 + x149 + x151 + x160 + x161 + x166 + x172
      + x174 + x176 + x182 + x188 + x190 + x192 + x200 + x204 + x205 + x206
      + x209 + x213 + x214 + x217 + x218 + x221 + x223 + x224 + x226 + x228
      + x230 + x232 + x235 + x236 + x238 + x242 + x244 + x245 + x246 + x247
      + x249 + x251 + x254 + x255 + x256 + x261 + x263 + x265 + x266 + x268
      + x270 + x272 + x274 + x276 + x278  = 1
 c26: x1 + x16 + x31 + x33 + x40 + x43 + x45 + x83 + x86 + x87 + x100 + x127
      + x150 + x155 + x157 + x165 + x170 + x179 + x180 + x195 + x196 + x225
      + x260  = 1
 c27: x2 + x8 + x12 + x19 + x20 + x39 + x42 + x47 + x50 + x61 + x62 + x66 + x74
      + x75 + x81 + x84 + x97 + x102 + x103 + x106 + x111 + x116 + x117 + x119
      + x123 + x125 + x126 + x129 + x130 + x140 + x145 + x146 + x152 + x153
      + x154 + x156 + x159 + x161 + x166 + x173 + x187 + x223 + x250  = 1
 c28: x2 + x8 + x12 + x19 + x20 + x39 + x42 + x47 + x51 + x54 + x56 + x82 + x94
      + x99 + x114 + x138 + x141 + x158 + x240 + x241 + x243 + x253  = 1
 c29: x6 + x10 + x13 + x15 + x23 + x27 + x52 + x55 + x67 + x69 + x70 + x72
      + x77 + x80 + x89 + x104 + x108 + x110 + x121 + x142 + x181 + x183 + x185
      + x197 + x237 + x264  = 1
 c30: x1 + x17 + x44 + x46 + x49 + x53 + x57 + x59 + x63 + x71 + x79 + x96
      + x131 + x134 + x136 + x212 + x215  = 1
 c31: x4 + x9 + x17 + x44 + x46 + x49 + x53 + x57 + x59 + x63 + x71 + x79 + x96
      + x131 + x134 + x136 + x211 + x213 + x215  = 1
 c32: x5 + x18 + x21 + x25 + x26 + x29 + x31 + x33 + x40 + x43 + x45 + x83
      + x86 + x87 + x100 + x127 + x150 + x155 + x157 + x165 + x170 + x179
      + x180 + x195 + x196 + x225 + x260  = 1
 c33: x6 + x11 + x37 + x76 + x88 + x92 + x98 + x144 + x147 + x148 + x164 + x167
      + x169 + x173 + x187 + x222 + x250  = 1
 c34: x5 + x18 + x21 + x25 + x27 + x52 + x55 + x67 + x69 + x70 + x72 + x77
      + x80 + x89 + x103 + x105 + x108 + x110 + x117 + x118 + x120 + x142
      + x181 + x183 + x185 + x197 + x237 + x264  = 1
 c35: x3 + x14 + x22 + x24 + x28 + x34 + x48 + x51 + x54 + x56 + x82 + x93
      + x95 + x138 + x141 + x158 + x240 + x241 + x243 + x253  = 1
 c36: x1 + x16 + x30 + x32 + x35 + x37 + x76 + x88 + x92 + x98 + x144 + x146
      + x164 + x167 + x169 + x173 + x187 + x223 + x250  = 1
 c37: x1 + x16 + x30 + x32 + x35 + x36 + x38 + x41 + x58 + x60 + x64 + x65
      + x68 + x73 + x78 + x85 + x90 + x91 + x94 + x99 + x101 + x105 + x107
      + x109 + x112 + x113 + x114 + x115 + x118 + x120 + x122 + x124 + x129
      + x131 + x134 + x136 + x151 + x159 + x161 + x166 + x172 + x174 + x176
      + x182 + x188 + x190 + x192 + x200 + x204 + x205 + x206 + x210 + x212
      + x215 + x216 + x218 + x220 + x224 + x226 + x228 + x230 + x232 + x235
      + x236 + x238 + x242 + x244 + x245 + x246 + x247 + x249 + x251 + x254
      + x255 + x256 + x261 + x263 + x265 + x266 + x268 + x270 + x272 + x274
      + x276 + x278  = 1
 c38: x1 + x16 + x30 + x32 + x35 + x36 + x38 + x41 + x59 + x63 + x71 + x79
      + x96 + x131 + x134 + x136 + x212 + x215  = 1
 c39: x4 + x9 + x17 + x44 + x47 + x50 + x61 + x62 + x66 + x74 + x75 + x81 + x84
      + x97 + x102 + x103 + x106 + x111 + x116 + x117 + x119 + x123 + x125
      + x126 + x129 + x130 + x140 + x145 + x147 + x148 + x152 + x153 + x154
      + x156 + x160 + x162 + x163 + x168 + x171 + x175 + x177 + x178 + x184
      + x186 + x189 + x191 + x193 + x194 + x198 + x199 + x201 + x202 + x203
      + x207 + x208 + x210 + x211 + x217 + x219 + x221 + x222 + x227 + x229
      + x231 + x233 + x234 + x239 + x247 + x250 + x252 + x257 + x258 + x259
      + x262 + x267 + x269 + x271 + x273 + x275 + x277  = 1
 c40: x2 + x9 + x17 + x45 + x83 + x86 + x87 + x100 + x127 + x148 + x153 + x154
      + x156 + x165 + x171 + x174 + x177 + x178 + x184 + x186 + x189 + x191
      + x193 + x194 + x198 + x199 + x201 + x202 + x203 + x206 + x210 + x211
      + x217 + x219 + x221 + x222 + x227 + x229 + x231 + x232 + x239 + x248
      + x251 + x258 + x259 + x262 + x266 + x268 + x271 + x273 + x275 + x277
       = 1
 c41: x7 + x11 + x37 + x75 + x81 + x84 + x97 + x144 + x147 + x148 + x163 + x168
      + x171 + x175 + x177 + x178 + x184 + x186 + x189 + x191 + x193 + x194
      + x198 + x199 + x201 + x202 + x203 + x207 + x208 + x210 + x211 + x217
      + x219 + x221 + x222 + x227 + x229 + x231 + x233 + x234 + x239 + x248
      + x252 + x257 + x258 + x259 + x262 + x267 + x269 + x271 + x273 + x275
      + x277  = 1
 c42: x2 + x8 + x13 + x15 + x23 + x27 + x52 + x55 + x67 + x78 + x85 + x90 + x91
      + x94 + x99 + x104 + x108 + x110 + x121 + x133 + x135 + x137 + x139
      + x143 + x149 + x180 + x197 + x237 + x244 + x245 + x246 + x263 + x265
      + x278  = 1
 c43: x1 + x16 + x30 + x32 + x35 + x36 + x38 + x41 + x58 + x60 + x64 + x65
      + x68 + x69 + x73 + x78 + x85 + x90 + x91 + x94 + x99 + x102 + x104
      + x108 + x110 + x116 + x121 + x128 + x132 + x133 + x135 + x137 + x139
      + x143 + x149 + x151 + x159 + x161 + x166 + x172 + x174 + x176 + x183
      + x185 + x188 + x190 + x192 + x200 + x204 + x205 + x206 + x209 + x213
      + x214 + x216 + x218 + x220 + x225 + x226 + x228 + x230 + x233 + x235
      + x236 + x238 + x242 + x244 + x245 + x246 + x247 + x249 + x251 + x254
      + x256 + x261 + x264 + x265 + x266 + x268 + x270 + x272 + x274 + x276
       = 1
 c44: x3 + x15 + x23 + x27 + x52 + x55 + x67 + x69 + x70 + x72 + x77 + x80
      + x90 + x91 + x94 + x99 + x104 + x108 + x110 + x121 + x139 + x143 + x149
      + x181 + x183 + x185 + x197 + x237 + x246 + x264  = 1
 c45: x2 + x8 + x12 + x19 + x21 + x25 + x26 + x29 + x31 + x33 + x40 + x43 + x45
      + x83 + x86 + x88 + x92 + x98 + x127 + x150 + x155 + x157 + x166 + x172
      + x174 + x176 + x182 + x188 + x191 + x192 + x200 + x204 + x205 + x206
      + x209 + x213 + x214 + x216 + x218 + x220 + x224 + x226 + x228 + x230
      + x232 + x235 + x236 + x238 + x242 + x244 + x247 + x249 + x251 + x254
      + x255 + x256 + x257 + x262 + x266 + x268 + x270 + x272 + x274 + x276
      + x278  = 1
 c46: x4 + x9 + x17 + x44 + x46 + x49 + x53 + x57 + x59 + x63 + x71 + x79 + x96
      + x131 + x134 + x136 + x212 + x215  = 1
 c47: x5 + x19 + x20 + x39 + x42 + x47 + x50 + x61 + x62 + x66 + x74 + x75
      + x82 + x93 + x95 + x102 + x103 + x106 + x111 + x116 + x117 + x119 + x123
      + x125 + x126 + x129 + x130 + x140 + x145 + x146 + x152 + x153 + x154
      + x156 + x160 + x162 + x163 + x168 + x171 + x175 + x177 + x178 + x184
      + x186 + x189 + x191 + x193 + x194 + x198 + x199 + x201 + x202 + x203
      + x207 + x208 + x210 + x211 + x216 + x218 + x220 + x227 + x229 + x231
      + x233 + x234 + x239 + x248 + x252 + x257 + x258 + x259 + x262 + x267
      + x269 + x271 + x273 + x275 + x277  = 1
 c48: x3 + x14 + x22 + x24 + x28 + x35 + x36 + x38 + x41 + x58 + x60 + x64
      + x65 + x68 + x73 + x78 + x85 + x90 + x91 + x94 + x99 + x101 + x105
      + x107 + x109 + x112 + x113 + x114 + x115 + x118 + x120 + x122 + x124
      + x128 + x132 + x133 + x136 + x151 + x159 + x161 + x166 + x172 + x174
      + x176 + x182 + x188 + x190 + x192 + x200 + x204 + x205 + x206 + x209
      + x213 + x214 + x216 + x218 + x220 + x224 + x226 + x228 + x230 + x232
      + x235 + x236 + x238 + x242 + x244 + x245 + x246 + x247 + x249 + x251
      + x254 + x255 + x256 + x261 + x263 + x265 + x266 + x268 + x270 + x272
      + x274 + x276 + x278  = 1
 c49: x3 + x14 + x22 + x24 + x28 + x34 + x49 + x53 + x57 + x59 + x63 + x71
      + x79 + x96 + x131 + x134 + x136 + x212 + x214  = 1
 c50: x1 + x16 + x30 + x32 + x35 + x36 + x38 + x41 + x58 + x60 + x64 + x65
      + x68 + x73 + x78 + x85 + x90 + x91 + x94 + x100 + x101 + x105 + x107
      + x109 + x112 + x113 + x114 + x115 + x118 + x120 + x122 + x124 + x128
      + x132 + x133 + x135 + x137 + x139 + x143 + x149 + x151 + x159 + x161
      + x166 + x172 + x174 + x176 + x182 + x188 + x190 + x192 + x200 + x204
      + x205 + x206 + x209 + x213 + x214 + x216 + x218 + x220 + x224 + x226
      + x229 + x230 + x232 + x235 + x236 + x238 + x242 + x244 + x245 + x246
      + x247 + x249 + x251 + x254 + x255 + x256 + x260 + x261 + x263 + x265
      + x266 + x268 + x270 + x272 + x274 + x276 + x278  = 1
 c51: x4 + x8 + x12 + x19 + x21 + x25 + x26 + x29 + x31 + x33 + x40 + x43 + x45
      + x83 + x86 + x87 + x100 + x127 + x150 + x155 + x157 + x165 + x170 + x179
      + x180 + x195 + x196 + x225 + x260  = 1
 c52: x1 + x16 + x30 + x33 + x40 + x43 + x45 + x83 + x86 + x87 + x100 + x127
      + x150 + x155 + x157 + x165 + x170 + x178 + x185 + x194 + x202 + x234
      + x235 + x259  = 1
 c53: x3 + x14 + x22 + x24 + x28 + x34 + x48 + x51 + x54 + x56 + x82 + x93
      + x95 + x138 + x141 + x158 + x240 + x241 + x243 + x253  = 1
 c54: x4 + x9 + x17 + x44 + x47 + x50 + x61 + x62 + x66 + x74 + x75 + x81 + x84
      + x97 + x102 + x103 + x106 + x111 + x116 + x117 + x119 + x123 + x125
      + x126 + x129 + x130 + x140 + x145 + x146 + x152 + x153 + x154 + x156
      + x160 + x162 + x163 + x168 + x171 + x175 + x177 + x178 + x184 + x187
      + x189 + x191 + x193 + x194 + x198 + x201 + x202 + x203 + x207 + x209
      + x217 + x219 + x221 + x222 + x229 + x231 + x233 + x234 + x239 + x248
      + x252 + x257 + x258 + x259 + x261 + x263 + x265 + x267 + x269 + x271
      + x273 + x275 + x277  = 1
 c55: x2 + x8 + x12 + x19 + x20 + x39 + x42 + x47 + x50 + x61 + x62 + x66 + x74
      + x75 + x81 + x84 + x97 + x102 + x103 + x106 + x111 + x116 + x117 + x119
      + x124 + x129 + x130 + x141 + x152 + x153 + x154 + x156 + x160 + x162
      + x163 + x168 + x171 + x175 + x177 + x178 + x184 + x186 + x189 + x191
      + x192 + x201 + x202 + x203 + x207 + x208 + x210 + x211 + x217 + x219
      + x221 + x222 + x227 + x229 + x231 + x233 + x234 + x238 + x243 + x248
      + x252 + x257 + x258 + x259 + x262 + x267 + x269 + x271 + x273 + x275
      + x276 + x278  = 1
Bounds
 0 <= x1 <= 1
 0 <= x2 <= 1
 0 <= x3 <= 1
 0 <= x4 <= 1
 0 <= x5 <= 1
 0 <= x6 <= 1
 0 <= x7 <= 1
 0 <= x8 <= 1
 0 <= x9 <= 1
 0 <= x10 <= 1
 0 <= x11 <= 1
 0 <= x12 <= 1
 0 <= x13 <= 1
 0 <= x14 <= 1
 0 <= x15 <= 1
 0 <= x16 <= 1
 0 <= x17 <= 1
 0 <= x18 <= 1
 0 <= x19 <= 1
 0 <= x20 <= 1
 0 <= x21 <= 1
 0 <= x22 <= 1
 0 <= x23 <= 1
 0 <= x24 <= 1
 0 <= x25 <= 1
 0 <= x26 <= 1
 0 <= x27 <= 1
 0 <= x28 <= 1
 0 <= x29 <= 1
 0 <= x30 <= 1
 0 <= x31 <= 1
 0 <= x32 <= 1
 0 <= x33 <= 1
 0 <= x34 <= 1
 0 <= x35 <= 1
 0 <= x36 <= 1
 0 <= x37 <= 1
 0 <= x38 <= 1
 0 <= x39 <= 1
 0 <= x40 <= 1
 0 <= x41 <= 1
 0 <= x42 <= 1
 0 <= x43 <= 1
 0 <= x44 <= 1
 0 <= x45 <= 1
 0 <= x46 <= 1
 0 <= x47 <= 1
 0 <= x48 <= 1
 0 <= x49 <= 1
 0 <= x50 <= 1
 0 <= x51 <= 1
 0 <= x52 <= 1
 0 <= x53 <= 1
 0 <= x54 <= 1
 0 <= x55 <= 1
 0 <= x56 <= 1
 0 <= x57 <= 1
 0 <= x58 <= 1
 0 <= x59 <= 1
 0 <= x60 <= 1
 0 <= x61 <= 1
 0 <= x62 <= 1
 0 <= x63 <= 1
 0 <= x64 <= 1
 0 <= x65 <= 1
 0 <= x66 <= 1
 0 <= x67 <= 1
 0 <= x68 <= 1
 0 <= x69 <= 1
 0 <= x70 <= 1
 0 <= x71 <= 1
 0 <= x72 <= 1
 0 <= x73 <= 1
 0 <= x74 <= 1
 0 <= x75 <= 1
 0 <= x76 <= 1
 0 <= x77 <= 1
 0 <= x78 <= 1
 0 <= x79 <= 1
 0 <= x80 <= 1
 0 <= x81 <= 1
 0 <= x82 <= 1
 0 <= x83 <= 1
 0 <= x84 <= 1
 0 <= x85 <= 1
 0 <= x86 <= 1
 0 <= x87 <= 1
 0 <= x88 <= 1
 0 <= x89 <= 1
 0 <= x90 <= 1
 0 <= x91 <= 1
 0 <= x92 <= 1
 0 <= x93 <= 1
 0 <= x94 <= 1
 0 <= x95 <= 1
 0 <= x96 <= 1
 0 <= x97 <= 1
 0 <= x98 <= 1
 0 <= x99 <= 1
 0 <= x100 <= 1
 0 <= x101 <= 1
 0 <= x102 <= 1
 0 <= x103 <= 1
 0 <= x104 <= 1
 0 <= x105 <= 1
 0 <= x106 <= 1
 0 <= x107 <= 1
 0 <= x108 <= 1
 0 <= x109 <= 1
 0 <= x110 <= 1
 0 <= x111 <= 1
 0 <= x112 <= 1
 0 <= x113 <= 1
 0 <= x114 <= 1
 0 <= x115 <= 1
 0 <= x116 <= 1
 0 <= x117 <= 1
 0 <= x118 <= 1
 0 <= x119 <= 1
 0 <= x120 <= 1
 0 <= x121 <= 1
 0 <= x122 <= 1
 0 <= x123 <= 1
 0 <= x124 <= 1
 0 <= x125 <= 1
 0 <= x126 <= 1
 0 <= x127 <= 1
 0 <= x128 <= 1
 0 <= x129 <= 1
 0 <= x130 <= 1
 0 <= x131 <= 1
 0 <= x132 <= 1
 0 <= x133 <= 1
 0 <= x134 <= 1
 0 <= x135 <= 1
 0 <= x136 <= 1
 0 <= x137 <= 1
 0 <= x138 <= 1
 0 <= x139 <= 1
 0 <= x140 <= 1
 0 <= x141 <= 1
 0 <= x142 <= 1
 0 <= x143 <= 1
 0 <= x144 <= 1
 0 <= x145 <= 1
 0 <= x146 <= 1
 0 <= x147 <= 1
 0 <= x148 <= 1
 0 <= x149 <= 1
 0 <= x150 <= 1
 0 <= x151 <= 1
 0 <= x152 <= 1
 0 <= x153 <= 1
 0 <= x154 <= 1
 0 <= x155 <= 1
 0 <= x156 <= 1
 0 <= x157 <= 1
 0 <= x158 <= 1
 0 <= x159 <= 1
 0 <= x160 <= 1
 0 <= x161 <= 1
 0 <= x162 <= 1
 0 <= x163 <= 1
 0 <= x164 <= 1
 0 <= x165 <= 1
 0 <= x166 <= 1
 0 <= x167 <= 1
 0 <= x168 <= 1
 0 <= x169 <= 1
 0 <= x170 <= 1
 0 <= x171 <= 1
 0 <= x172 <= 1
 0 <= x173 <= 1
 0 <= x174 <= 1
 0 <= x175 <= 1
 0 <= x176 <= 1
 0 <= x177 <= 1
 0 <= x178 <= 1
 0 <= x179 <= 1
 0 <= x180 <= 1
 0 <= x181 <= 1
 0 <= x182 <= 1
 0 <= x183 <= 1
 0 <= x184 <= 1
 0 <= x185 <= 1
 0 <= x186 <= 1
 0 <= x187 <= 1
 0 <= x188 <= 1
 0 <= x189 <= 1
 0 <= x190 <= 1
 0 <= x191 <= 1
 0 <= x192 <= 1
 0 <= x193 <= 1
 0 <= x194 <= 1
 0 <= x195 <= 1
 0 <= x196 <= 1
 0 <= x197 <= 1
 0 <= x198 <= 1
 0 <= x199 <= 1
 0 <= x200 <= 1
 0 <= x201 <= 1
 0 <= x202 <= 1
 0 <= x203 <= 1
 0 <= x204 <= 1
 0 <= x205 <= 1
 0 <= x206 <= 1
 0 <= x207 <= 1
 0 <= x208 <= 1
 0 <= x209 <= 1
 0 <= x210 <= 1
 0 <= x211 <= 1
 0 <= x212 <= 1
 0 <= x213 <= 1
 0 <= x214 <= 1
 0 <= x215 <= 1
 0 <= x216 <= 1
 0 <= x217 <= 1
 0 <= x218 <= 1
 0 <= x219 <= 1
 0 <= x220 <= 1
 0 <= x221 <= 1
 0 <= x222 <= 1
 0 <= x223 <= 1
 0 <= x224 <= 1
 0 <= x225 <= 1
 0 <= x226 <= 1
 0 <= x227 <= 1
 0 <= x228 <= 1
 0 <= x229 <= 1
 0 <= x230 <= 1
 0 <= x231 <= 1
 0 <= x232 <= 1
 0 <= x233 <= 1
 0 <= x234 <= 1
 0 <= x235 <= 1
 0 <= x236 <= 1
 0 <= x237 <= 1
 0 <= x238 <= 1
 0 <= x239 <= 1
 0 <= x240 <= 1
 0 <= x241 <= 1
 0 <= x242 <= 1
 0 <= x243 <= 1
 0 <= x244 <= 1
 0 <= x245 <= 1
 0 <= x246 <= 1
 0 <= x247 <= 1
 0 <= x248 <= 1
 0 <= x249 <= 1
 0 <= x250 <= 1
 0 <= x251 <= 1
 0 <= x252 <= 1
 0 <= x253 <= 1
 0 <= x254 <= 1
 0 <= x255 <= 1
 0 <= x256 <= 1
 0 <= x257 <= 1
 0 <= x258 <= 1
 0 <= x259 <= 1
 0 <= x260 <= 1
 0 <= x261 <= 1
 0 <= x262 <= 1
 0 <= x263 <= 1
 0 <= x264 <= 1
 0 <= x265 <= 1
 0 <= x266 <= 1
 0 <= x267 <= 1
 0 <= x268 <= 1
 0 <= x269 <= 1
 0 <= x270 <= 1
 0 <= x271 <= 1
 0 <= x272 <= 1
 0 <= x273 <= 1
 0 <= x274 <= 1
 0 <= x275 <= 1
 0 <= x276 <= 1
 0 <= x277 <= 1
 0 <= x278 <= 1
Binaries
 x1  x2  x3  x4  x5  x6  x7  x8  x9  x10  x11  x12  x13  x14  x15  x16  x17 
 x18  x19  x20  x21  x22  x23  x24  x25  x26  x27  x28  x29  x30  x31  x32 
 x33  x34  x35  x36  x37  x38  x39  x40  x41  x42  x43  x44  x45  x46  x47 
 x48  x49  x50  x51  x52  x53  x54  x55  x56  x57  x58  x59  x60  x61  x62 
 x63  x64  x65  x66  x67  x68  x69  x70  x71  x72  x73  x74  x75  x76  x77 
 x78  x79  x80  x81  x82  x83  x84  x85  x86  x87  x88  x89  x90  x91  x92 
 x93  x94  x95  x96  x97  x98  x99  x100  x101  x102  x103  x104  x105  x106 
 x107  x108  x109  x110  x111  x112  x113  x114  x115  x116  x117  x118  x119 
 x120  x121  x122  x123  x124  x125  x126  x127  x128  x129  x130  x131  x132 
 x133  x134  x135  x136  x137  x138  x139  x140  x141  x142  x143  x144  x145 
 x146  x147  x148  x149  x150  x151  x152  x153  x154  x155  x156  x157  x158 
 x159  x160  x161  x162  x163  x164  x165  x166  x167  x168  x169  x170  x171 
 x172  x173  x174  x175  x176  x177  x178  x179  x180  x181  x182  x183  x184 
 x185  x186  x187  x188  x189  x190  x191  x192  x193  x194  x195  x196  x197 
 x198  x199  x200  x201  x202  x203  x204  x205  x206  x207  x208  x209  x210 
 x211  x212  x213  x214  x215  x216  x217  x218  x219  x220  x221  x222  x223 
 x224  x225  x226  x227  x228  x229  x230  x231  x232  x233  x234  x235  x236 
 x237  x238  x239  x240  x241  x242  x243  x244  x245  x246  x247  x248  x249 
 x250  x251  x252  x253  x254  x255  x256  x257  x258  x259  x260  x261  x262 
 x263  x264  x265  x266  x267  x268  x269  x270  x271  x272  x273  x274  x275 
 x276  x277  x278 
End
